dis_froz_max =   1.0708984375d+01
dis_froz_min =   3.0273437500d-01
dis_num_iter = 100
dis_win_max =   1.7277343750d+01
dis_win_min =  -1.0037109375d+01
mp_grid = 10    10    10
num_bands = 32
num_iter = 0
num_wann = 16
spinors = .true.
use_ws_distance = .true.
write_hr = .true.
write_xyz = .true.

begin atoms_cart
ang
Si   2.7152900398 2.7152900398 2.7152900398 
Si   4.0729350597 4.0729350597 4.0729350597 
end atoms_cart

begin kpoints
      0.0000000000       0.0000000000       0.0000000000
      0.1000000000       0.0000000000       0.0000000000
      0.2000000000       0.0000000000       0.0000000000
      0.3000000000       0.0000000000       0.0000000000
      0.4000000000       0.0000000000       0.0000000000
      0.5000000000       0.0000000000       0.0000000000
     -0.4000000000       0.0000000000       0.0000000000
     -0.3000000000       0.0000000000       0.0000000000
     -0.2000000000       0.0000000000       0.0000000000
     -0.1000000000       0.0000000000       0.0000000000
      0.0000000000       0.1000000000       0.0000000000
      0.1000000000       0.1000000000       0.0000000000
      0.2000000000       0.1000000000       0.0000000000
      0.3000000000       0.1000000000       0.0000000000
      0.4000000000       0.1000000000       0.0000000000
      0.5000000000       0.1000000000       0.0000000000
     -0.4000000000       0.1000000000       0.0000000000
     -0.3000000000       0.1000000000       0.0000000000
     -0.2000000000       0.1000000000       0.0000000000
     -0.1000000000       0.1000000000       0.0000000000
      0.0000000000       0.2000000000       0.0000000000
      0.1000000000       0.2000000000       0.0000000000
      0.2000000000       0.2000000000       0.0000000000
      0.3000000000       0.2000000000       0.0000000000
      0.4000000000       0.2000000000       0.0000000000
      0.5000000000       0.2000000000       0.0000000000
     -0.4000000000       0.2000000000       0.0000000000
     -0.3000000000       0.2000000000       0.0000000000
     -0.2000000000       0.2000000000       0.0000000000
     -0.1000000000       0.2000000000       0.0000000000
      0.0000000000       0.3000000000       0.0000000000
      0.1000000000       0.3000000000       0.0000000000
      0.2000000000       0.3000000000       0.0000000000
      0.3000000000       0.3000000000       0.0000000000
      0.4000000000       0.3000000000       0.0000000000
      0.5000000000       0.3000000000       0.0000000000
     -0.4000000000       0.3000000000       0.0000000000
     -0.3000000000       0.3000000000       0.0000000000
     -0.2000000000       0.3000000000       0.0000000000
     -0.1000000000       0.3000000000       0.0000000000
      0.0000000000       0.4000000000       0.0000000000
      0.1000000000       0.4000000000       0.0000000000
      0.2000000000       0.4000000000       0.0000000000
      0.3000000000       0.4000000000       0.0000000000
      0.4000000000       0.4000000000       0.0000000000
      0.5000000000       0.4000000000       0.0000000000
     -0.4000000000       0.4000000000       0.0000000000
     -0.3000000000       0.4000000000       0.0000000000
     -0.2000000000       0.4000000000       0.0000000000
     -0.1000000000       0.4000000000       0.0000000000
      0.0000000000       0.5000000000       0.0000000000
      0.1000000000       0.5000000000       0.0000000000
      0.2000000000       0.5000000000       0.0000000000
      0.3000000000       0.5000000000       0.0000000000
      0.4000000000       0.5000000000       0.0000000000
      0.5000000000       0.5000000000       0.0000000000
     -0.4000000000       0.5000000000       0.0000000000
     -0.3000000000       0.5000000000       0.0000000000
     -0.2000000000       0.5000000000       0.0000000000
     -0.1000000000       0.5000000000       0.0000000000
      0.0000000000      -0.4000000000       0.0000000000
      0.1000000000      -0.4000000000       0.0000000000
      0.2000000000      -0.4000000000       0.0000000000
      0.3000000000      -0.4000000000       0.0000000000
      0.4000000000      -0.4000000000       0.0000000000
      0.5000000000      -0.4000000000       0.0000000000
     -0.4000000000      -0.4000000000       0.0000000000
     -0.3000000000      -0.4000000000       0.0000000000
     -0.2000000000      -0.4000000000       0.0000000000
     -0.1000000000      -0.4000000000       0.0000000000
      0.0000000000      -0.3000000000       0.0000000000
      0.1000000000      -0.3000000000       0.0000000000
      0.2000000000      -0.3000000000       0.0000000000
      0.3000000000      -0.3000000000       0.0000000000
      0.4000000000      -0.3000000000       0.0000000000
      0.5000000000      -0.3000000000       0.0000000000
     -0.4000000000      -0.3000000000       0.0000000000
     -0.3000000000      -0.3000000000       0.0000000000
     -0.2000000000      -0.3000000000       0.0000000000
     -0.1000000000      -0.3000000000       0.0000000000
      0.0000000000      -0.2000000000       0.0000000000
      0.1000000000      -0.2000000000       0.0000000000
      0.2000000000      -0.2000000000       0.0000000000
      0.3000000000      -0.2000000000       0.0000000000
      0.4000000000      -0.2000000000       0.0000000000
      0.5000000000      -0.2000000000       0.0000000000
     -0.4000000000      -0.2000000000       0.0000000000
     -0.3000000000      -0.2000000000       0.0000000000
     -0.2000000000      -0.2000000000       0.0000000000
     -0.1000000000      -0.2000000000       0.0000000000
      0.0000000000      -0.1000000000       0.0000000000
      0.1000000000      -0.1000000000       0.0000000000
      0.2000000000      -0.1000000000       0.0000000000
      0.3000000000      -0.1000000000       0.0000000000
      0.4000000000      -0.1000000000       0.0000000000
      0.5000000000      -0.1000000000       0.0000000000
     -0.4000000000      -0.1000000000       0.0000000000
     -0.3000000000      -0.1000000000       0.0000000000
     -0.2000000000      -0.1000000000       0.0000000000
     -0.1000000000      -0.1000000000       0.0000000000
      0.0000000000       0.0000000000       0.1000000000
      0.1000000000       0.0000000000       0.1000000000
      0.2000000000       0.0000000000       0.1000000000
      0.3000000000       0.0000000000       0.1000000000
      0.4000000000       0.0000000000       0.1000000000
      0.5000000000       0.0000000000       0.1000000000
     -0.4000000000       0.0000000000       0.1000000000
     -0.3000000000       0.0000000000       0.1000000000
     -0.2000000000       0.0000000000       0.1000000000
     -0.1000000000       0.0000000000       0.1000000000
      0.0000000000       0.1000000000       0.1000000000
      0.1000000000       0.1000000000       0.1000000000
      0.2000000000       0.1000000000       0.1000000000
      0.3000000000       0.1000000000       0.1000000000
      0.4000000000       0.1000000000       0.1000000000
      0.5000000000       0.1000000000       0.1000000000
     -0.4000000000       0.1000000000       0.1000000000
     -0.3000000000       0.1000000000       0.1000000000
     -0.2000000000       0.1000000000       0.1000000000
     -0.1000000000       0.1000000000       0.1000000000
      0.0000000000       0.2000000000       0.1000000000
      0.1000000000       0.2000000000       0.1000000000
      0.2000000000       0.2000000000       0.1000000000
      0.3000000000       0.2000000000       0.1000000000
      0.4000000000       0.2000000000       0.1000000000
      0.5000000000       0.2000000000       0.1000000000
     -0.4000000000       0.2000000000       0.1000000000
     -0.3000000000       0.2000000000       0.1000000000
     -0.2000000000       0.2000000000       0.1000000000
     -0.1000000000       0.2000000000       0.1000000000
      0.0000000000       0.3000000000       0.1000000000
      0.1000000000       0.3000000000       0.1000000000
      0.2000000000       0.3000000000       0.1000000000
      0.3000000000       0.3000000000       0.1000000000
      0.4000000000       0.3000000000       0.1000000000
      0.5000000000       0.3000000000       0.1000000000
     -0.4000000000       0.3000000000       0.1000000000
     -0.3000000000       0.3000000000       0.1000000000
     -0.2000000000       0.3000000000       0.1000000000
     -0.1000000000       0.3000000000       0.1000000000
      0.0000000000       0.4000000000       0.1000000000
      0.1000000000       0.4000000000       0.1000000000
      0.2000000000       0.4000000000       0.1000000000
      0.3000000000       0.4000000000       0.1000000000
      0.4000000000       0.4000000000       0.1000000000
      0.5000000000       0.4000000000       0.1000000000
     -0.4000000000       0.4000000000       0.1000000000
     -0.3000000000       0.4000000000       0.1000000000
     -0.2000000000       0.4000000000       0.1000000000
     -0.1000000000       0.4000000000       0.1000000000
      0.0000000000       0.5000000000       0.1000000000
      0.1000000000       0.5000000000       0.1000000000
      0.2000000000       0.5000000000       0.1000000000
      0.3000000000       0.5000000000       0.1000000000
      0.4000000000       0.5000000000       0.1000000000
      0.5000000000       0.5000000000       0.1000000000
     -0.4000000000       0.5000000000       0.1000000000
     -0.3000000000       0.5000000000       0.1000000000
     -0.2000000000       0.5000000000       0.1000000000
     -0.1000000000       0.5000000000       0.1000000000
      0.0000000000      -0.4000000000       0.1000000000
      0.1000000000      -0.4000000000       0.1000000000
      0.2000000000      -0.4000000000       0.1000000000
      0.3000000000      -0.4000000000       0.1000000000
      0.4000000000      -0.4000000000       0.1000000000
      0.5000000000      -0.4000000000       0.1000000000
     -0.4000000000      -0.4000000000       0.1000000000
     -0.3000000000      -0.4000000000       0.1000000000
     -0.2000000000      -0.4000000000       0.1000000000
     -0.1000000000      -0.4000000000       0.1000000000
      0.0000000000      -0.3000000000       0.1000000000
      0.1000000000      -0.3000000000       0.1000000000
      0.2000000000      -0.3000000000       0.1000000000
      0.3000000000      -0.3000000000       0.1000000000
      0.4000000000      -0.3000000000       0.1000000000
      0.5000000000      -0.3000000000       0.1000000000
     -0.4000000000      -0.3000000000       0.1000000000
     -0.3000000000      -0.3000000000       0.1000000000
     -0.2000000000      -0.3000000000       0.1000000000
     -0.1000000000      -0.3000000000       0.1000000000
      0.0000000000      -0.2000000000       0.1000000000
      0.1000000000      -0.2000000000       0.1000000000
      0.2000000000      -0.2000000000       0.1000000000
      0.3000000000      -0.2000000000       0.1000000000
      0.4000000000      -0.2000000000       0.1000000000
      0.5000000000      -0.2000000000       0.1000000000
     -0.4000000000      -0.2000000000       0.1000000000
     -0.3000000000      -0.2000000000       0.1000000000
     -0.2000000000      -0.2000000000       0.1000000000
     -0.1000000000      -0.2000000000       0.1000000000
      0.0000000000      -0.1000000000       0.1000000000
      0.1000000000      -0.1000000000       0.1000000000
      0.2000000000      -0.1000000000       0.1000000000
      0.3000000000      -0.1000000000       0.1000000000
      0.4000000000      -0.1000000000       0.1000000000
      0.5000000000      -0.1000000000       0.1000000000
     -0.4000000000      -0.1000000000       0.1000000000
     -0.3000000000      -0.1000000000       0.1000000000
     -0.2000000000      -0.1000000000       0.1000000000
     -0.1000000000      -0.1000000000       0.1000000000
      0.0000000000       0.0000000000       0.2000000000
      0.1000000000       0.0000000000       0.2000000000
      0.2000000000       0.0000000000       0.2000000000
      0.3000000000       0.0000000000       0.2000000000
      0.4000000000       0.0000000000       0.2000000000
      0.5000000000       0.0000000000       0.2000000000
     -0.4000000000       0.0000000000       0.2000000000
     -0.3000000000       0.0000000000       0.2000000000
     -0.2000000000       0.0000000000       0.2000000000
     -0.1000000000       0.0000000000       0.2000000000
      0.0000000000       0.1000000000       0.2000000000
      0.1000000000       0.1000000000       0.2000000000
      0.2000000000       0.1000000000       0.2000000000
      0.3000000000       0.1000000000       0.2000000000
      0.4000000000       0.1000000000       0.2000000000
      0.5000000000       0.1000000000       0.2000000000
     -0.4000000000       0.1000000000       0.2000000000
     -0.3000000000       0.1000000000       0.2000000000
     -0.2000000000       0.1000000000       0.2000000000
     -0.1000000000       0.1000000000       0.2000000000
      0.0000000000       0.2000000000       0.2000000000
      0.1000000000       0.2000000000       0.2000000000
      0.2000000000       0.2000000000       0.2000000000
      0.3000000000       0.2000000000       0.2000000000
      0.4000000000       0.2000000000       0.2000000000
      0.5000000000       0.2000000000       0.2000000000
     -0.4000000000       0.2000000000       0.2000000000
     -0.3000000000       0.2000000000       0.2000000000
     -0.2000000000       0.2000000000       0.2000000000
     -0.1000000000       0.2000000000       0.2000000000
      0.0000000000       0.3000000000       0.2000000000
      0.1000000000       0.3000000000       0.2000000000
      0.2000000000       0.3000000000       0.2000000000
      0.3000000000       0.3000000000       0.2000000000
      0.4000000000       0.3000000000       0.2000000000
      0.5000000000       0.3000000000       0.2000000000
     -0.4000000000       0.3000000000       0.2000000000
     -0.3000000000       0.3000000000       0.2000000000
     -0.2000000000       0.3000000000       0.2000000000
     -0.1000000000       0.3000000000       0.2000000000
      0.0000000000       0.4000000000       0.2000000000
      0.1000000000       0.4000000000       0.2000000000
      0.2000000000       0.4000000000       0.2000000000
      0.3000000000       0.4000000000       0.2000000000
      0.4000000000       0.4000000000       0.2000000000
      0.5000000000       0.4000000000       0.2000000000
     -0.4000000000       0.4000000000       0.2000000000
     -0.3000000000       0.4000000000       0.2000000000
     -0.2000000000       0.4000000000       0.2000000000
     -0.1000000000       0.4000000000       0.2000000000
      0.0000000000       0.5000000000       0.2000000000
      0.1000000000       0.5000000000       0.2000000000
      0.2000000000       0.5000000000       0.2000000000
      0.3000000000       0.5000000000       0.2000000000
      0.4000000000       0.5000000000       0.2000000000
      0.5000000000       0.5000000000       0.2000000000
     -0.4000000000       0.5000000000       0.2000000000
     -0.3000000000       0.5000000000       0.2000000000
     -0.2000000000       0.5000000000       0.2000000000
     -0.1000000000       0.5000000000       0.2000000000
      0.0000000000      -0.4000000000       0.2000000000
      0.1000000000      -0.4000000000       0.2000000000
      0.2000000000      -0.4000000000       0.2000000000
      0.3000000000      -0.4000000000       0.2000000000
      0.4000000000      -0.4000000000       0.2000000000
      0.5000000000      -0.4000000000       0.2000000000
     -0.4000000000      -0.4000000000       0.2000000000
     -0.3000000000      -0.4000000000       0.2000000000
     -0.2000000000      -0.4000000000       0.2000000000
     -0.1000000000      -0.4000000000       0.2000000000
      0.0000000000      -0.3000000000       0.2000000000
      0.1000000000      -0.3000000000       0.2000000000
      0.2000000000      -0.3000000000       0.2000000000
      0.3000000000      -0.3000000000       0.2000000000
      0.4000000000      -0.3000000000       0.2000000000
      0.5000000000      -0.3000000000       0.2000000000
     -0.4000000000      -0.3000000000       0.2000000000
     -0.3000000000      -0.3000000000       0.2000000000
     -0.2000000000      -0.3000000000       0.2000000000
     -0.1000000000      -0.3000000000       0.2000000000
      0.0000000000      -0.2000000000       0.2000000000
      0.1000000000      -0.2000000000       0.2000000000
      0.2000000000      -0.2000000000       0.2000000000
      0.3000000000      -0.2000000000       0.2000000000
      0.4000000000      -0.2000000000       0.2000000000
      0.5000000000      -0.2000000000       0.2000000000
     -0.4000000000      -0.2000000000       0.2000000000
     -0.3000000000      -0.2000000000       0.2000000000
     -0.2000000000      -0.2000000000       0.2000000000
     -0.1000000000      -0.2000000000       0.2000000000
      0.0000000000      -0.1000000000       0.2000000000
      0.1000000000      -0.1000000000       0.2000000000
      0.2000000000      -0.1000000000       0.2000000000
      0.3000000000      -0.1000000000       0.2000000000
      0.4000000000      -0.1000000000       0.2000000000
      0.5000000000      -0.1000000000       0.2000000000
     -0.4000000000      -0.1000000000       0.2000000000
     -0.3000000000      -0.1000000000       0.2000000000
     -0.2000000000      -0.1000000000       0.2000000000
     -0.1000000000      -0.1000000000       0.2000000000
      0.0000000000       0.0000000000       0.3000000000
      0.1000000000       0.0000000000       0.3000000000
      0.2000000000       0.0000000000       0.3000000000
      0.3000000000       0.0000000000       0.3000000000
      0.4000000000       0.0000000000       0.3000000000
      0.5000000000       0.0000000000       0.3000000000
     -0.4000000000       0.0000000000       0.3000000000
     -0.3000000000       0.0000000000       0.3000000000
     -0.2000000000       0.0000000000       0.3000000000
     -0.1000000000       0.0000000000       0.3000000000
      0.0000000000       0.1000000000       0.3000000000
      0.1000000000       0.1000000000       0.3000000000
      0.2000000000       0.1000000000       0.3000000000
      0.3000000000       0.1000000000       0.3000000000
      0.4000000000       0.1000000000       0.3000000000
      0.5000000000       0.1000000000       0.3000000000
     -0.4000000000       0.1000000000       0.3000000000
     -0.3000000000       0.1000000000       0.3000000000
     -0.2000000000       0.1000000000       0.3000000000
     -0.1000000000       0.1000000000       0.3000000000
      0.0000000000       0.2000000000       0.3000000000
      0.1000000000       0.2000000000       0.3000000000
      0.2000000000       0.2000000000       0.3000000000
      0.3000000000       0.2000000000       0.3000000000
      0.4000000000       0.2000000000       0.3000000000
      0.5000000000       0.2000000000       0.3000000000
     -0.4000000000       0.2000000000       0.3000000000
     -0.3000000000       0.2000000000       0.3000000000
     -0.2000000000       0.2000000000       0.3000000000
     -0.1000000000       0.2000000000       0.3000000000
      0.0000000000       0.3000000000       0.3000000000
      0.1000000000       0.3000000000       0.3000000000
      0.2000000000       0.3000000000       0.3000000000
      0.3000000000       0.3000000000       0.3000000000
      0.4000000000       0.3000000000       0.3000000000
      0.5000000000       0.3000000000       0.3000000000
     -0.4000000000       0.3000000000       0.3000000000
     -0.3000000000       0.3000000000       0.3000000000
     -0.2000000000       0.3000000000       0.3000000000
     -0.1000000000       0.3000000000       0.3000000000
      0.0000000000       0.4000000000       0.3000000000
      0.1000000000       0.4000000000       0.3000000000
      0.2000000000       0.4000000000       0.3000000000
      0.3000000000       0.4000000000       0.3000000000
      0.4000000000       0.4000000000       0.3000000000
      0.5000000000       0.4000000000       0.3000000000
     -0.4000000000       0.4000000000       0.3000000000
     -0.3000000000       0.4000000000       0.3000000000
     -0.2000000000       0.4000000000       0.3000000000
     -0.1000000000       0.4000000000       0.3000000000
      0.0000000000       0.5000000000       0.3000000000
      0.1000000000       0.5000000000       0.3000000000
      0.2000000000       0.5000000000       0.3000000000
      0.3000000000       0.5000000000       0.3000000000
      0.4000000000       0.5000000000       0.3000000000
      0.5000000000       0.5000000000       0.3000000000
     -0.4000000000       0.5000000000       0.3000000000
     -0.3000000000       0.5000000000       0.3000000000
     -0.2000000000       0.5000000000       0.3000000000
     -0.1000000000       0.5000000000       0.3000000000
      0.0000000000      -0.4000000000       0.3000000000
      0.1000000000      -0.4000000000       0.3000000000
      0.2000000000      -0.4000000000       0.3000000000
      0.3000000000      -0.4000000000       0.3000000000
      0.4000000000      -0.4000000000       0.3000000000
      0.5000000000      -0.4000000000       0.3000000000
     -0.4000000000      -0.4000000000       0.3000000000
     -0.3000000000      -0.4000000000       0.3000000000
     -0.2000000000      -0.4000000000       0.3000000000
     -0.1000000000      -0.4000000000       0.3000000000
      0.0000000000      -0.3000000000       0.3000000000
      0.1000000000      -0.3000000000       0.3000000000
      0.2000000000      -0.3000000000       0.3000000000
      0.3000000000      -0.3000000000       0.3000000000
      0.4000000000      -0.3000000000       0.3000000000
      0.5000000000      -0.3000000000       0.3000000000
     -0.4000000000      -0.3000000000       0.3000000000
     -0.3000000000      -0.3000000000       0.3000000000
     -0.2000000000      -0.3000000000       0.3000000000
     -0.1000000000      -0.3000000000       0.3000000000
      0.0000000000      -0.2000000000       0.3000000000
      0.1000000000      -0.2000000000       0.3000000000
      0.2000000000      -0.2000000000       0.3000000000
      0.3000000000      -0.2000000000       0.3000000000
      0.4000000000      -0.2000000000       0.3000000000
      0.5000000000      -0.2000000000       0.3000000000
     -0.4000000000      -0.2000000000       0.3000000000
     -0.3000000000      -0.2000000000       0.3000000000
     -0.2000000000      -0.2000000000       0.3000000000
     -0.1000000000      -0.2000000000       0.3000000000
      0.0000000000      -0.1000000000       0.3000000000
      0.1000000000      -0.1000000000       0.3000000000
      0.2000000000      -0.1000000000       0.3000000000
      0.3000000000      -0.1000000000       0.3000000000
      0.4000000000      -0.1000000000       0.3000000000
      0.5000000000      -0.1000000000       0.3000000000
     -0.4000000000      -0.1000000000       0.3000000000
     -0.3000000000      -0.1000000000       0.3000000000
     -0.2000000000      -0.1000000000       0.3000000000
     -0.1000000000      -0.1000000000       0.3000000000
      0.0000000000       0.0000000000       0.4000000000
      0.1000000000       0.0000000000       0.4000000000
      0.2000000000       0.0000000000       0.4000000000
      0.3000000000       0.0000000000       0.4000000000
      0.4000000000       0.0000000000       0.4000000000
      0.5000000000       0.0000000000       0.4000000000
     -0.4000000000       0.0000000000       0.4000000000
     -0.3000000000       0.0000000000       0.4000000000
     -0.2000000000       0.0000000000       0.4000000000
     -0.1000000000       0.0000000000       0.4000000000
      0.0000000000       0.1000000000       0.4000000000
      0.1000000000       0.1000000000       0.4000000000
      0.2000000000       0.1000000000       0.4000000000
      0.3000000000       0.1000000000       0.4000000000
      0.4000000000       0.1000000000       0.4000000000
      0.5000000000       0.1000000000       0.4000000000
     -0.4000000000       0.1000000000       0.4000000000
     -0.3000000000       0.1000000000       0.4000000000
     -0.2000000000       0.1000000000       0.4000000000
     -0.1000000000       0.1000000000       0.4000000000
      0.0000000000       0.2000000000       0.4000000000
      0.1000000000       0.2000000000       0.4000000000
      0.2000000000       0.2000000000       0.4000000000
      0.3000000000       0.2000000000       0.4000000000
      0.4000000000       0.2000000000       0.4000000000
      0.5000000000       0.2000000000       0.4000000000
     -0.4000000000       0.2000000000       0.4000000000
     -0.3000000000       0.2000000000       0.4000000000
     -0.2000000000       0.2000000000       0.4000000000
     -0.1000000000       0.2000000000       0.4000000000
      0.0000000000       0.3000000000       0.4000000000
      0.1000000000       0.3000000000       0.4000000000
      0.2000000000       0.3000000000       0.4000000000
      0.3000000000       0.3000000000       0.4000000000
      0.4000000000       0.3000000000       0.4000000000
      0.5000000000       0.3000000000       0.4000000000
     -0.4000000000       0.3000000000       0.4000000000
     -0.3000000000       0.3000000000       0.4000000000
     -0.2000000000       0.3000000000       0.4000000000
     -0.1000000000       0.3000000000       0.4000000000
      0.0000000000       0.4000000000       0.4000000000
      0.1000000000       0.4000000000       0.4000000000
      0.2000000000       0.4000000000       0.4000000000
      0.3000000000       0.4000000000       0.4000000000
      0.4000000000       0.4000000000       0.4000000000
      0.5000000000       0.4000000000       0.4000000000
     -0.4000000000       0.4000000000       0.4000000000
     -0.3000000000       0.4000000000       0.4000000000
     -0.2000000000       0.4000000000       0.4000000000
     -0.1000000000       0.4000000000       0.4000000000
      0.0000000000       0.5000000000       0.4000000000
      0.1000000000       0.5000000000       0.4000000000
      0.2000000000       0.5000000000       0.4000000000
      0.3000000000       0.5000000000       0.4000000000
      0.4000000000       0.5000000000       0.4000000000
      0.5000000000       0.5000000000       0.4000000000
     -0.4000000000       0.5000000000       0.4000000000
     -0.3000000000       0.5000000000       0.4000000000
     -0.2000000000       0.5000000000       0.4000000000
     -0.1000000000       0.5000000000       0.4000000000
      0.0000000000      -0.4000000000       0.4000000000
      0.1000000000      -0.4000000000       0.4000000000
      0.2000000000      -0.4000000000       0.4000000000
      0.3000000000      -0.4000000000       0.4000000000
      0.4000000000      -0.4000000000       0.4000000000
      0.5000000000      -0.4000000000       0.4000000000
     -0.4000000000      -0.4000000000       0.4000000000
     -0.3000000000      -0.4000000000       0.4000000000
     -0.2000000000      -0.4000000000       0.4000000000
     -0.1000000000      -0.4000000000       0.4000000000
      0.0000000000      -0.3000000000       0.4000000000
      0.1000000000      -0.3000000000       0.4000000000
      0.2000000000      -0.3000000000       0.4000000000
      0.3000000000      -0.3000000000       0.4000000000
      0.4000000000      -0.3000000000       0.4000000000
      0.5000000000      -0.3000000000       0.4000000000
     -0.4000000000      -0.3000000000       0.4000000000
     -0.3000000000      -0.3000000000       0.4000000000
     -0.2000000000      -0.3000000000       0.4000000000
     -0.1000000000      -0.3000000000       0.4000000000
      0.0000000000      -0.2000000000       0.4000000000
      0.1000000000      -0.2000000000       0.4000000000
      0.2000000000      -0.2000000000       0.4000000000
      0.3000000000      -0.2000000000       0.4000000000
      0.4000000000      -0.2000000000       0.4000000000
      0.5000000000      -0.2000000000       0.4000000000
     -0.4000000000      -0.2000000000       0.4000000000
     -0.3000000000      -0.2000000000       0.4000000000
     -0.2000000000      -0.2000000000       0.4000000000
     -0.1000000000      -0.2000000000       0.4000000000
      0.0000000000      -0.1000000000       0.4000000000
      0.1000000000      -0.1000000000       0.4000000000
      0.2000000000      -0.1000000000       0.4000000000
      0.3000000000      -0.1000000000       0.4000000000
      0.4000000000      -0.1000000000       0.4000000000
      0.5000000000      -0.1000000000       0.4000000000
     -0.4000000000      -0.1000000000       0.4000000000
     -0.3000000000      -0.1000000000       0.4000000000
     -0.2000000000      -0.1000000000       0.4000000000
     -0.1000000000      -0.1000000000       0.4000000000
      0.0000000000       0.0000000000       0.5000000000
      0.1000000000       0.0000000000       0.5000000000
      0.2000000000       0.0000000000       0.5000000000
      0.3000000000       0.0000000000       0.5000000000
      0.4000000000       0.0000000000       0.5000000000
      0.5000000000       0.0000000000       0.5000000000
     -0.4000000000       0.0000000000       0.5000000000
     -0.3000000000       0.0000000000       0.5000000000
     -0.2000000000       0.0000000000       0.5000000000
     -0.1000000000       0.0000000000       0.5000000000
      0.0000000000       0.1000000000       0.5000000000
      0.1000000000       0.1000000000       0.5000000000
      0.2000000000       0.1000000000       0.5000000000
      0.3000000000       0.1000000000       0.5000000000
      0.4000000000       0.1000000000       0.5000000000
      0.5000000000       0.1000000000       0.5000000000
     -0.4000000000       0.1000000000       0.5000000000
     -0.3000000000       0.1000000000       0.5000000000